
Gurobi 7.5.2 (linux64) logging started Sat Jul  7 16:00:03 2018

Changed value of parameter LogFile to result/ilp/simNo_3-n_100-m_40-s_4-minVAF_0.05-cov_10000-k_2-fn_0.05-fp_0.0001-na_0.15.ILP.gurobiSolverLog
   Prev: gurobi.log  Default: 
Changed value of parameter TimeLimit to 86400.0
   Prev: 1e+100  Min: 0.0  Max: 1e+100  Default: 1e+100
Optimize a model with 639293 rows, 10765 columns and 1940420 nonzeros
Variable types: 0 continuous, 10765 integer (10765 binary)
Coefficient statistics:
  Matrix range     [2e-04, 4e+00]
  Objective range  [1e-01, 9e+00]
  Bounds range     [1e+00, 1e+00]
  RHS range        [2e-01, 2e+00]
Found heuristic solution: objective -15237.16963
Presolve removed 131773 rows and 1022 columns (presolve time = 5s) ...
Presolve removed 132350 rows and 1022 columns (presolve time = 11s) ...
Presolve removed 190050 rows and 1599 columns (presolve time = 15s) ...
Presolve removed 190050 rows and 1599 columns
Presolve time: 16.10s
Presolved: 449243 rows, 9166 columns, 1349854 nonzeros
Variable types: 0 continuous, 9166 integer (9166 binary)
Presolved: 9166 rows, 458409 columns, 1359020 nonzeros

Presolve removed 9166 rows and 458409 columns

Root simplex log...

Iteration    Objective       Primal Inf.    Dual Inf.      Time
       0    8.5176237e+00   0.000000e+00   7.340400e+04     19s
    8156   -7.3893523e+01   0.000000e+00   2.587338e+05     20s
   15510   -1.2230920e+02   0.000000e+00   0.000000e+00     22s
   15510   -1.2230920e+02   0.000000e+00   0.000000e+00     23s

Root relaxation: objective -1.223092e+02, 15510 iterations, 5.42 seconds
Total elapsed time = 65.51s
Total elapsed time = 78.51s

    Nodes    |    Current Node    |     Objective Bounds      |     Work
 Expl Unexpl |  Obj  Depth IntInf | Incumbent    BestBd   Gap | It/Node Time

     0     0 -122.30920    0  370 -15237.170 -122.30920  99.2%     -   91s
H    0     0                    -162.9607486 -122.30920  24.9%     -   94s
H    0     0                    -151.5093145 -122.30920  19.3%     -   96s
H    0     0                    -140.1889882 -122.30920  12.8%     -   96s
     0     0 -125.07861    0  370 -140.18899 -125.07861  10.8%     -  106s
     0     0 -127.57107    0  367 -140.18899 -127.57107  9.00%     -  144s
     0     0 -127.57107    0  365 -140.18899 -127.57107  9.00%     -  150s
     0     0 -127.84801    0  332 -140.18899 -127.84801  8.80%     -  158s
H    0     0                    -137.4195825 -127.84801  6.97%     -  161s
     0     0 -128.74158    0  494 -137.41958 -128.74158  6.31%     -  188s
     0     0 -128.74158    0  495 -137.41958 -128.74158  6.31%     -  193s
     0     0 -128.86391    0  592 -137.41958 -128.86391  6.23%     -  307s
     0     0 -128.86391    0  360 -137.41958 -128.86391  6.23%     -  356s
     0     0 -128.86391    0  387 -137.41958 -128.86391  6.23%     -  359s
     0     0 -128.86391    0  587 -137.41958 -128.86391  6.23%     -  361s
     0     0 -128.94378    0  593 -137.41958 -128.94378  6.17%     -  362s
     0     0 -130.86071    0  585 -137.41958 -130.86071  4.77%     -  369s
     0     0 -130.86071    0  282 -137.41958 -130.86071  4.77%     -  377s
     0     0 -130.86071    0  348 -137.41958 -130.86071  4.77%     -  378s
     0     0 -130.86071    0  422 -137.41958 -130.86071  4.77%     -  379s
     0     0 -130.86071    0  426 -137.41958 -130.86071  4.77%     -  380s
     0     0 -130.86071    0  428 -137.41958 -130.86071  4.77%     -  380s
     0     0 -132.04455    0  449 -137.41958 -132.04455  3.91%     -  381s
     0     0 -132.27062    0  381 -137.41958 -132.27062  3.75%     -  381s
     0     0 -132.30477    0  331 -137.41958 -132.30477  3.72%     -  382s
     0     0 -132.40488    0  412 -137.41958 -132.40488  3.65%     -  382s
     0     0 -132.43235    0  417 -137.41958 -132.43235  3.63%     -  383s
     0     0 -132.43235    0  411 -137.41958 -132.43235  3.63%     -  386s
     0     0 -132.43235    0  252 -137.41958 -132.43235  3.63%     -  388s
     0     0 -132.43235    0  222 -137.41958 -132.43235  3.63%     -  388s
     0     0 -132.43235    0  258 -137.41958 -132.43235  3.63%     -  389s
     0     0 -132.43235    0  245 -137.41958 -132.43235  3.63%     -  389s
     0     0 -132.43235    0  287 -137.41958 -132.43235  3.63%     -  389s
     0     0 -132.43235    0  314 -137.41958 -132.43235  3.63%     -  389s
     0     0 -132.43314    0  314 -137.41958 -132.43314  3.63%     -  389s
     0     0 -132.43314    0  313 -137.41958 -132.43314  3.63%     -  389s
     0     0 -132.43314    0  319 -137.41958 -132.43314  3.63%     -  389s
     0     0 -132.43314    0  319 -137.41958 -132.43314  3.63%     -  390s
     0     0 -132.43314    0  310 -137.41958 -132.43314  3.63%     -  390s
     0     0 -132.43314    0  312 -137.41958 -132.43314  3.63%     -  390s
     0     0 -132.71477    0  330 -137.41958 -132.71477  3.42%     -  391s
     0     0 -132.84125    0  287 -137.41958 -132.84125  3.33%     -  392s
     0     0 -132.92022    0  283 -137.41958 -132.92022  3.27%     -  392s
     0     0 -132.92022    0  288 -137.41958 -132.92022  3.27%     -  392s
     0     0 -133.26547    0  225 -137.41958 -133.26547  3.02%     -  392s
     0     0 -133.26547    0  209 -137.41958 -133.26547  3.02%     -  392s
     0     0 -133.26547    0  182 -137.41958 -133.26547  3.02%     -  392s
     0     0 -133.26547    0  188 -137.41958 -133.26547  3.02%     -  392s
     0     0 -133.38683    0  175 -137.41958 -133.38683  2.93%     -  393s
     0     0 -133.38715    0  239 -137.41958 -133.38715  2.93%     -  393s
     0     0 -133.59096    0  283 -137.41958 -133.59096  2.79%     -  393s
     0     0 -133.59096    0  295 -137.41958 -133.59096  2.79%     -  393s
     0     0 -133.59103    0  326 -137.41958 -133.59103  2.79%     -  393s
     0     0 -133.59105    0  326 -137.41958 -133.59105  2.79%     -  394s
     0     0 -133.59105    0  309 -137.41958 -133.59105  2.79%     -  394s
     0     0 -133.59105    0  314 -137.41958 -133.59105  2.79%     -  395s
     0     0 -133.80794    0  244 -137.41958 -133.80794  2.63%     -  396s
     0     0 -133.80794    0  250 -137.41958 -133.80794  2.63%     -  396s
     0     0 -133.80794    0  267 -137.41958 -133.80794  2.63%     -  396s
     0     0 -133.80794    0  261 -137.41958 -133.80794  2.63%     -  396s
     0     0 -133.80794    0  239 -137.41958 -133.80794  2.63%     -  397s
     0     0 -133.80794    0  243 -137.41958 -133.80794  2.63%     -  397s
     0     0 -133.80794    0  271 -137.41958 -133.80794  2.63%     -  398s
     0     0 -133.80794    0  271 -137.41958 -133.80794  2.63%     -  402s
     0     2 -134.40617    0  271 -137.41958 -134.40617  2.19%     -  403s
    13     5 -136.86570   10  161 -137.41958 -135.19286  1.62%   121  405s

Cutting planes:
  Gomory: 5
  Implied bound: 3
  MIR: 1
  Zero half: 58

Explored 54 nodes (86796 simplex iterations) in 406.59 seconds
Thread count was 1 (of 80 available processors)

Solution count 8: -137.42 -137.42 -137.42 ... -15237.2

Optimal solution found (tolerance 1.00e-04)
Best objective -1.374195824934e+02, best bound -1.374195824934e+02, gap 0.0000%
